12,7	0,0	14,4	11,8	0,0	0,0	0,0	0,0	0,0	8,3
16,3	16,1	0,0	5,7	8,6	0,0	0,0	18,9	0,0	0,0
0,0	0,0	11,6	0,0	17,0	16,0	0,0	0,0	16,7	0,0
7,9	0,0	18,7	0,0	0,0	0,0	17,9	0,0	0,0	0,0
0,0	5,4	0,0	19,0	5,3	0,0	0,0	19,8	0,0	0,0
0,0	19,1	18,3	0,0	6,3	6,3	0,0	0,0	7,7	0,0
0,0	12,5	0,0	10,2	0,0	0,0	5,2	0,0	0,0	13,6
18,2	0,0	19,4	0,0	0,0	0,0	0,0	0,0	0,0	15,4
0,0	19,5	0,0	10,8	5,1	0,0	0,0	14,3	0,0	0,0
0,0	0,0	18,9	0,0	0,0	10,0	19,3	0,0	0,0	11,6
									
4,0	4,1	3,3	3,4	3,9	4,9	3,6	3,8	3,4	3,3
